c SAT Generator for power-law distributed variable frequencies
c -g u -v 20 -c 91 -k 3 -p 2.750000 -b 3.200000 -f /home/schmidt/Devel/ni-kop-sat/data/ensemble/ruf20-91/ruf20-91-489 -u 1 -U 1 -s 2416628544
p cnf 20 91
-4 -9 17 0
3 -10 -18 0
1 8 14 0
-13 -16 19 0
-12 -19 -20 0
-3 7 -11 0
-4 -16 -19 0
6 13 16 0
-3 5 -13 0
-11 13 14 0
-1 -10 19 0
-4 -6 11 0
-8 18 19 0
3 -14 -15 0
2 -18 20 0
11 -18 -20 0
5 12 17 0
-8 -9 -10 0
-8 -16 -20 0
-1 2 -4 0
1 2 17 0
4 -14 20 0
5 6 16 0
-1 3 7 0
-1 3 -15 0
-1 8 -11 0
-4 7 -15 0
11 15 -19 0
4 10 13 0
4 -5 13 0
-6 9 13 0
-2 -3 9 0
7 -15 -20 0
7 15 -18 0
-4 -10 -19 0
-5 -13 16 0
-13 16 -18 0
-5 12 -18 0
1 -13 15 0
8 -17 20 0
-3 -11 -19 0
-2 -11 -12 0
5 -13 15 0
8 12 -18 0
-8 -9 16 0
2 14 16 0
11 -14 20 0
-3 -18 -19 0
-1 -4 -17 0
1 -2 4 0
2 3 -6 0
4 -17 -20 0
-4 -8 -17 0
-6 13 17 0
7 -12 -19 0
-1 2 -13 0
-4 -11 -12 0
-12 13 -16 0
-5 -6 11 0
-9 -10 14 0
-2 -7 -16 0
-8 -14 18 0
2 -8 -16 0
-2 -11 -20 0
7 10 12 0
14 15 -20 0
6 -8 14 0
-1 5 -10 0
13 14 -16 0
1 11 -19 0
-13 16 -19 0
-4 -7 -12 0
2 -9 -18 0
4 -12 13 0
13 16 -17 0
-1 18 20 0
-12 14 -18 0
3 -11 13 0
-9 10 18 0
1 14 16 0
9 -10 13 0
-3 -8 -11 0
5 -9 20 0
-5 -9 -19 0
-5 -9 13 0
-7 11 -16 0
-1 -5 14 0
3 10 -12 0
-12 13 -19 0
-5 7 -20 0
-6 13 18 0
